c This is a CNF SAT formula in the DIMACS CNF format,
c produced with the bc2cnf translator by Tommi Junttila;
c see http://users.ics.aalto.fi/tjunttil/circuits/index.html
c phi_Gamma <-> 1
c phi_T_feature_det <-> 1
c phi_T_transitions <-> 1
c phi_T_transitions_consistency <-> 1
c phi_T <-> 1
c phi_sim_leaves <-> 1
c phi_sim_transition <-> 1
c phi_sim <-> 1
c FORMULA <-> 1
c pi_1_14 <-> 2
c pi_1_15 <-> 2
c pi_1_18 <-> 2
c pi_0_14 <-> 15
c pi_0_15 <-> 15
c pi_0_18 <-> 15
c pi_1_10 <-> 34
c pi_1_17 <-> 34
c pi_0_10 <-> 47
c pi_0_17 <-> 47
c pi_1_16 <-> 66
c pi_0_16 <-> 69
c pi_1_13 <-> 85
c pi_0_13 <-> 87
c pi_1_12 <-> 100
c pi_0_12 <-> 104
c pi_1_11 <-> 120
c pi_0_11 <-> 123
c pi_1_9 <-> 136
c pi_0_9 <-> 143
c pi_1_8 <-> 160
c pi_0_8 <-> 165
c pi_1_7 <-> 178
c pi_0_7 <-> 183
c pi_1_6 <-> 199
c pi_0_6 <-> 202
c pi_1_5 <-> 215
c pi_0_5 <-> 222
c pi_1_4 <-> 239
c pi_0_4 <-> 241
c pi_1_1 <-> 254
c pi_1_3 <-> 254
c pi_0_1 <-> 255
c pi_0_3 <-> 255
c pi_1_2 <-> 274
c pi_0_2 <-> 276
c pi_1_0 <-> 289
c pi_0_0 <-> 292
c alp_approved_0_0 <-> 308
c alp_approved_1_1 <-> 308
c alp_approved_0_2 <-> 308
c alp_approved_1_3 <-> 308
c alp_approved_1_4 <-> 308
c alp_approved_0_5 <-> 308
c alp_approved_1_6 <-> 308
c alp_approved_1_7 <-> 308
c alp_approved_1_8 <-> 308
c alp_approved_1_9 <-> 308
c alp_approved_1_10 <-> 308
c alp_approved_0_11 <-> 308
c alp_approved_0_12 <-> 308
c alp_approved_0_13 <-> 308
c alp_approved_0_14 <-> 308
c alp_approved_0_15 <-> 308
c alp_approved_1_16 <-> 308
c alp_approved_1_17 <-> 308
c alp_approved_0_18 <-> 308
c alp_approved_0_1 <-> 309
c alp_approved_0_3 <-> 309
c alp_approved_0_4 <-> 309
c alp_approved_0_6 <-> 309
c alp_approved_0_7 <-> 309
c alp_approved_0_8 <-> 309
c alp_approved_0_9 <-> 309
c alp_approved_0_10 <-> 309
c alp_approved_0_16 <-> 309
c alp_approved_0_17 <-> 309
c approved_P0 <-> 309
c alp_approved_1_0 <-> 310
c alp_approved_1_2 <-> 310
c alp_approved_1_5 <-> 310
c alp_approved_1_11 <-> 310
c alp_approved_1_12 <-> 310
c alp_approved_1_13 <-> 310
c alp_approved_1_14 <-> 310
c alp_approved_1_15 <-> 310
c alp_approved_1_18 <-> 310
c approved_P100 <-> 310
c tau_1_3_approved_1 <-> 347
c tau_1_3_approved_0 <-> 348
c tau_1_2_approved_1 <-> 349
c tau_1_2_approved_0 <-> 350
c tau_1_1_approved_1 <-> 351
c tau_1_1_approved_0 <-> 352
c tau_1_0_approved_1 <-> 353
c tau_1_0_approved_0 <-> 354
c tau_0_3_approved_1 <-> 392
c tau_0_3_approved_0 <-> 393
c tau_0_3_1 <-> 394
c tau_0_2_approved_1 <-> 395
c tau_0_2_approved_0 <-> 396
c tau_0_2_1 <-> 397
c tau_0_1_approved_1 <-> 398
c tau_0_1_approved_0 <-> 399
c tau_0_1_1 <-> 400
c tau_0_0_approved_1 <-> 401
c tau_0_0_approved_0 <-> 402
c tau_0_0_1 <-> 403
c lam_1_credit_score <-> 417
c lam_1_dependents <-> 419
c lam_1_monthly_income <-> 421
c lam_1_age <-> 422
c lam_0_credit_score <-> 436
c lam_0_dependents <-> 438
c lam_0_monthly_income <-> 440
c lam_0_age <-> 441
p wcnf 441 1279 20  
20 1 0
20 2 -3 0
20 2 -6 0
20 -2 6 3 0
20 -3 4 0
20 -3 417 0
20 3 -417 -4 0
20 -4 5 0
20 -4 -350 0
20 4 350 -5 0
20 5 349 0
20 5 -310 0
20 -5 310 -349 0
20 6 -7 0
20 6 -10 0
20 -6 10 7 0
20 -7 8 0
20 -7 419 0
20 7 -419 -8 0
20 -8 9 0
20 -8 -354 0
20 8 354 -9 0
20 9 353 0
20 9 -310 0
20 -9 310 -353 0
20 10 -11 0
20 10 -12 0
20 -10 12 11 0
20 -11 13 0
20 -11 421 0
20 11 -421 -13 0
20 -12 13 0
20 -12 422 0
20 12 -422 -13 0
20 -13 14 0
20 -13 -352 0
20 13 352 -14 0
20 14 351 0
20 14 -310 0
20 -14 310 -351 0
20 15 -16 0
20 15 -21 0
20 -15 21 16 0
1 15 0
20 -16 17 0
20 -16 436 0
20 16 -436 -17 0
20 -17 18 0
20 -17 19 0
20 17 -19 -18 0
20 18 395 0
20 18 -310 0
20 -18 310 -395 0
20 -19 -396 0
20 -19 20 0
20 19 -20 396 0
20 20 -2 0
20 20 397 0
20 -20 -397 2 0
20 21 -22 0
20 21 -27 0
20 -21 27 22 0
20 -22 23 0
20 -22 438 0
20 22 -438 -23 0
20 -23 24 0
20 -23 25 0
20 23 -25 -24 0
20 24 401 0
20 24 -310 0
20 -24 310 -401 0
20 -25 -402 0
20 -25 26 0
20 25 -26 402 0
20 26 -2 0
20 26 403 0
20 -26 -403 2 0
20 27 -28 0
20 27 -29 0
20 -27 29 28 0
20 -28 30 0
20 -28 440 0
20 28 -440 -30 0
20 -29 30 0
20 -29 441 0
20 29 -441 -30 0
20 -30 31 0
20 -30 32 0
20 30 -32 -31 0
20 31 398 0
20 31 -310 0
20 -31 310 -398 0
20 -32 -399 0
20 -32 33 0
20 32 -33 399 0
20 33 -2 0
20 33 400 0
20 -33 -400 2 0
20 34 -35 0
20 34 -36 0
20 -34 36 35 0
20 -35 38 0
20 -35 417 0
20 35 -417 -38 0
20 36 -37 0
20 36 -40 0
20 -36 40 37 0
20 -37 38 0
20 -37 419 0
20 37 -419 -38 0
20 -38 -351 0
20 -38 39 0
20 38 -39 351 0
20 39 352 0
20 39 -309 0
20 -39 309 -352 0
20 40 -41 0
20 40 -44 0
20 -40 44 41 0
20 -41 42 0
20 -41 421 0
20 41 -421 -42 0
20 -42 -353 0
20 -42 43 0
20 42 -43 353 0
20 43 354 0
20 43 -309 0
20 -43 309 -354 0
20 -44 45 0
20 -44 422 0
20 44 -422 -45 0
20 -45 -347 0
20 -45 46 0
20 45 -46 347 0
20 46 348 0
20 46 -309 0
20 -46 309 -348 0
20 47 -48 0
20 47 -49 0
20 -47 49 48 0
1 47 0
20 -48 51 0
20 -48 436 0
20 48 -436 -51 0
20 49 -50 0
20 49 -55 0
20 -49 55 50 0
20 -50 51 0
20 -50 438 0
20 50 -438 -51 0
20 -51 -398 0
20 -51 52 0
20 51 -52 398 0
20 -52 53 0
20 -52 54 0
20 52 -54 -53 0
20 53 399 0
20 53 -309 0
20 -53 309 -399 0
20 54 400 0
20 54 -34 0
20 -54 34 -400 0
20 55 -56 0
20 55 -61 0
20 -55 61 56 0
20 -56 57 0
20 -56 440 0
20 56 -440 -57 0
20 -57 -401 0
20 -57 58 0
20 57 -58 401 0
20 -58 59 0
20 -58 60 0
20 58 -60 -59 0
20 59 402 0
20 59 -309 0
20 -59 309 -402 0
20 60 403 0
20 60 -34 0
20 -60 34 -403 0
20 -61 62 0
20 -61 441 0
20 61 -441 -62 0
20 -62 -392 0
20 -62 63 0
20 62 -63 392 0
20 -63 64 0
20 -63 65 0
20 63 -65 -64 0
20 64 393 0
20 64 -309 0
20 -64 309 -393 0
20 65 -34 0
20 65 394 0
20 -65 -394 34 0
20 66 -35 0
20 66 -67 0
20 -66 67 35 0
20 67 -40 0
20 67 -68 0
20 -67 68 40 0
20 -68 42 0
20 -68 419 0
20 68 -419 -42 0
20 69 -70 0
20 69 -74 0
20 -69 74 70 0
1 69 0
20 -70 71 0
20 -70 436 0
20 70 -436 -71 0
20 -71 -398 0
20 -71 72 0
20 71 -72 398 0
20 -72 53 0
20 -72 73 0
20 72 -73 -53 0
20 73 400 0
20 73 -66 0
20 -73 66 -400 0
20 74 -75 0
20 74 -76 0
20 -74 76 75 0
20 -75 78 0
20 -75 438 0
20 75 -438 -78 0
20 76 -77 0
20 76 -81 0
20 -76 81 77 0
20 -77 78 0
20 -77 440 0
20 77 -440 -78 0
20 -78 -401 0
20 -78 79 0
20 78 -79 401 0
20 -79 59 0
20 -79 80 0
20 79 -80 -59 0
20 80 403 0
20 80 -66 0
20 -80 66 -403 0
20 -81 82 0
20 -81 441 0
20 81 -441 -82 0
20 -82 -392 0
20 -82 83 0
20 82 -83 392 0
20 -83 64 0
20 -83 84 0
20 83 -84 -64 0
20 84 394 0
20 84 -66 0
20 -84 66 -394 0
20 85 -6 0
20 85 -86 0
20 -85 86 6 0
20 -86 13 0
20 -86 417 0
20 86 -417 -13 0
20 87 -88 0
20 87 -89 0
20 -87 89 88 0
1 87 0
20 -88 97 0
20 -88 436 0
20 88 -436 -97 0
20 89 -90 0
20 89 -94 0
20 -89 94 90 0
20 -90 91 0
20 -90 438 0
20 90 -438 -91 0
20 -91 24 0
20 -91 92 0
20 91 -92 -24 0
20 -92 -402 0
20 -92 93 0
20 92 -93 402 0
20 93 403 0
20 93 -85 0
20 -93 85 -403 0
20 94 -95 0
20 94 -96 0
20 -94 96 95 0
20 -95 97 0
20 -95 440 0
20 95 -440 -97 0
20 -96 97 0
20 -96 441 0
20 96 -441 -97 0
20 -97 31 0
20 -97 98 0
20 97 -98 -31 0
20 -98 -399 0
20 -98 99 0
20 98 -99 399 0
20 99 400 0
20 99 -85 0
20 -99 85 -400 0
20 100 -3 0
20 100 -101 0
20 -100 101 3 0
20 101 -7 0
20 101 -102 0
20 -101 102 7 0
20 102 -11 0
20 102 -103 0
20 -102 103 11 0
20 -103 4 0
20 -103 422 0
20 103 -422 -4 0
20 104 -105 0
20 104 -106 0
20 -104 106 105 0
1 104 0
20 -105 117 0
20 -105 436 0
20 105 -436 -117 0
20 106 -107 0
20 106 -111 0
20 -106 111 107 0
20 -107 108 0
20 -107 438 0
20 107 -438 -108 0
20 -108 24 0
20 -108 109 0
20 108 -109 -24 0
20 -109 -402 0
20 -109 110 0
20 109 -110 402 0
20 110 403 0
20 110 -100 0
20 -110 100 -403 0
20 111 -112 0
20 111 -116 0
20 -111 116 112 0
20 -112 113 0
20 -112 440 0
20 112 -440 -113 0
20 -113 31 0
20 -113 114 0
20 113 -114 -31 0
20 -114 -399 0
20 -114 115 0
20 114 -115 399 0
20 115 400 0
20 115 -100 0
20 -115 100 -400 0
20 -116 117 0
20 -116 441 0
20 116 -441 -117 0
20 -117 18 0
20 -117 118 0
20 117 -118 -18 0
20 -118 -396 0
20 -118 119 0
20 118 -119 396 0
20 119 397 0
20 119 -100 0
20 -119 100 -397 0
20 120 -3 0
20 120 -121 0
20 -120 121 3 0
20 121 -10 0
20 121 -122 0
20 -121 122 10 0
20 -122 13 0
20 -122 419 0
20 122 -419 -13 0
20 123 -124 0
20 123 -128 0
20 -123 128 124 0
1 123 0
20 -124 125 0
20 -124 436 0
20 124 -436 -125 0
20 -125 18 0
20 -125 126 0
20 125 -126 -18 0
20 -126 -396 0
20 -126 127 0
20 126 -127 396 0
20 127 397 0
20 127 -120 0
20 -127 120 -397 0
20 128 -129 0
20 128 -130 0
20 -128 130 129 0
20 -129 133 0
20 -129 438 0
20 129 -438 -133 0
20 130 -131 0
20 130 -132 0
20 -130 132 131 0
20 -131 133 0
20 -131 440 0
20 131 -440 -133 0
20 -132 133 0
20 -132 441 0
20 132 -441 -133 0
20 -133 31 0
20 -133 134 0
20 133 -134 -31 0
20 -134 -399 0
20 -134 135 0
20 134 -135 399 0
20 135 400 0
20 135 -120 0
20 -135 120 -400 0
20 136 -137 0
20 136 -138 0
20 -136 138 137 0
20 -137 42 0
20 -137 417 0
20 137 -417 -42 0
20 138 -37 0
20 138 -139 0
20 -138 139 37 0
20 139 -41 0
20 139 -140 0
20 -139 140 41 0
20 -140 141 0
20 -140 422 0
20 140 -422 -141 0
20 -141 -349 0
20 -141 142 0
20 141 -142 349 0
20 142 350 0
20 142 -309 0
20 -142 309 -350 0
20 143 -144 0
20 143 -145 0
20 -143 145 144 0
1 143 0
20 -144 152 0
20 -144 436 0
20 144 -436 -152 0
20 145 -146 0
20 145 -150 0
20 -145 150 146 0
20 -146 147 0
20 -146 438 0
20 146 -438 -147 0
20 -147 -398 0
20 -147 148 0
20 147 -148 398 0
20 -148 53 0
20 -148 149 0
20 148 -149 -53 0
20 149 400 0
20 149 -136 0
20 -149 136 -400 0
20 150 -151 0
20 150 -155 0
20 -150 155 151 0
20 -151 152 0
20 -151 440 0
20 151 -440 -152 0
20 -152 -401 0
20 -152 153 0
20 152 -153 401 0
20 -153 59 0
20 -153 154 0
20 153 -154 -59 0
20 154 403 0
20 154 -136 0
20 -154 136 -403 0
20 -155 156 0
20 -155 441 0
20 155 -441 -156 0
20 -156 -395 0
20 -156 157 0
20 156 -157 395 0
20 -157 158 0
20 -157 159 0
20 157 -159 -158 0
20 158 396 0
20 158 -309 0
20 -158 309 -396 0
20 159 397 0
20 159 -136 0
20 -159 136 -397 0
20 160 -35 0
20 160 -161 0
20 -160 161 35 0
20 161 -37 0
20 161 -162 0
20 -161 162 37 0
20 162 -163 0
20 162 -164 0
20 -162 164 163 0
20 -163 38 0
20 -163 421 0
20 163 -421 -38 0
20 -164 42 0
20 -164 422 0
20 164 -422 -42 0
20 165 -166 0
20 165 -167 0
20 -165 167 166 0
1 165 0
20 -166 171 0
20 -166 436 0
20 166 -436 -171 0
20 167 -168 0
20 167 -169 0
20 -167 169 168 0
20 -168 171 0
20 -168 438 0
20 168 -438 -171 0
20 169 -170 0
20 169 -174 0
20 -169 174 170 0
20 -170 171 0
20 -170 440 0
20 170 -440 -171 0
20 -171 -398 0
20 -171 172 0
20 171 -172 398 0
20 -172 53 0
20 -172 173 0
20 172 -173 -53 0
20 173 400 0
20 173 -160 0
20 -173 160 -400 0
20 -174 175 0
20 -174 441 0
20 174 -441 -175 0
20 -175 -401 0
20 -175 176 0
20 175 -176 401 0
20 -176 59 0
20 -176 177 0
20 176 -177 -59 0
20 177 403 0
20 177 -160 0
20 -177 160 -403 0
20 178 -179 0
20 178 -180 0
20 -178 180 179 0
20 -179 141 0
20 -179 417 0
20 179 -417 -141 0
20 180 -68 0
20 180 -181 0
20 -180 181 68 0
20 181 -41 0
20 181 -182 0
20 -181 182 41 0
20 -182 38 0
20 -182 422 0
20 182 -422 -38 0
20 183 -184 0
20 183 -188 0
20 -183 188 184 0
1 183 0
20 -184 185 0
20 -184 436 0
20 184 -436 -185 0
20 -185 -395 0
20 -185 186 0
20 185 -186 395 0
20 -186 158 0
20 -186 187 0
20 186 -187 -158 0
20 187 397 0
20 187 -178 0
20 -187 178 -397 0
20 188 -189 0
20 188 -190 0
20 -188 190 189 0
20 -189 192 0
20 -189 438 0
20 189 -438 -192 0
20 190 -191 0
20 190 -195 0
20 -190 195 191 0
20 -191 192 0
20 -191 440 0
20 191 -440 -192 0
20 -192 -401 0
20 -192 193 0
20 192 -193 401 0
20 -193 59 0
20 -193 194 0
20 193 -194 -59 0
20 194 403 0
20 194 -178 0
20 -194 178 -403 0
20 -195 196 0
20 -195 441 0
20 195 -441 -196 0
20 -196 -398 0
20 -196 197 0
20 196 -197 398 0
20 -197 53 0
20 -197 198 0
20 197 -198 -53 0
20 198 400 0
20 198 -178 0
20 -198 178 -400 0
20 199 -137 0
20 199 -200 0
20 -199 200 137 0
20 200 -68 0
20 200 -201 0
20 -200 201 68 0
20 201 -163 0
20 201 -182 0
20 -201 182 163 0
20 202 -203 0
20 202 -204 0
20 -202 204 203 0
1 202 0
20 -203 206 0
20 -203 436 0
20 203 -436 -206 0
20 204 -205 0
20 204 -209 0
20 -204 209 205 0
20 -205 206 0
20 -205 438 0
20 205 -438 -206 0
20 -206 -401 0
20 -206 207 0
20 206 -207 401 0
20 -207 59 0
20 -207 208 0
20 207 -208 -59 0
20 208 403 0
20 208 -199 0
20 -208 199 -403 0
20 209 -210 0
20 209 -211 0
20 -209 211 210 0
20 -210 212 0
20 -210 440 0
20 210 -440 -212 0
20 -211 212 0
20 -211 441 0
20 211 -441 -212 0
20 -212 -398 0
20 -212 213 0
20 212 -213 398 0
20 -213 53 0
20 -213 214 0
20 213 -214 -53 0
20 214 400 0
20 214 -199 0
20 -214 199 -400 0
20 215 -86 0
20 215 -216 0
20 -215 216 86 0
20 216 -7 0
20 216 -217 0
20 -216 217 7 0
20 217 -218 0
20 217 -219 0
20 -217 219 218 0
20 -218 8 0
20 -218 421 0
20 218 -421 -8 0
20 -219 220 0
20 -219 422 0
20 219 -422 -220 0
20 -220 -348 0
20 -220 221 0
20 220 -221 348 0
20 221 347 0
20 221 -310 0
20 -221 310 -347 0
20 222 -223 0
20 222 -227 0
20 -222 227 223 0
1 222 0
20 -223 224 0
20 -223 436 0
20 223 -436 -224 0
20 -224 31 0
20 -224 225 0
20 224 -225 -31 0
20 -225 -399 0
20 -225 226 0
20 225 -226 399 0
20 226 400 0
20 226 -215 0
20 -226 215 -400 0
20 227 -228 0
20 227 -229 0
20 -227 229 228 0
20 -228 231 0
20 -228 438 0
20 228 -438 -231 0
20 229 -230 0
20 229 -234 0
20 -229 234 230 0
20 -230 231 0
20 -230 440 0
20 230 -440 -231 0
20 -231 24 0
20 -231 232 0
20 231 -232 -24 0
20 -232 -402 0
20 -232 233 0
20 232 -233 402 0
20 233 403 0
20 233 -215 0
20 -233 215 -403 0
20 -234 235 0
20 -234 441 0
20 234 -441 -235 0
20 -235 236 0
20 -235 237 0
20 235 -237 -236 0
20 236 392 0
20 236 -310 0
20 -236 310 -392 0
20 -237 -393 0
20 -237 238 0
20 237 -238 393 0
20 238 394 0
20 238 -215 0
20 -238 215 -394 0
20 239 -137 0
20 239 -240 0
20 -239 240 137 0
20 240 -68 0
20 240 -139 0
20 -240 139 68 0
20 241 -242 0
20 241 -243 0
20 -241 243 242 0
1 241 0
20 -242 247 0
20 -242 436 0
20 242 -436 -247 0
20 243 -244 0
20 243 -245 0
20 -243 245 244 0
20 -244 247 0
20 -244 438 0
20 244 -438 -247 0
20 245 -246 0
20 245 -250 0
20 -245 250 246 0
20 -246 247 0
20 -246 440 0
20 246 -440 -247 0
20 -247 -401 0
20 -247 248 0
20 247 -248 401 0
20 -248 59 0
20 -248 249 0
20 248 -249 -59 0
20 249 403 0
20 249 -239 0
20 -249 239 -403 0
20 -250 251 0
20 -250 441 0
20 250 -441 -251 0
20 -251 -395 0
20 -251 252 0
20 251 -252 395 0
20 -252 158 0
20 -252 253 0
20 252 -253 -158 0
20 253 397 0
20 253 -239 0
20 -253 239 -397 0
20 254 -36 0
20 254 -179 0
20 -254 179 36 0
20 255 -256 0
20 255 -260 0
20 -255 260 256 0
1 255 0
20 -256 257 0
20 -256 436 0
20 256 -436 -257 0
20 -257 -395 0
20 -257 258 0
20 257 -258 395 0
20 -258 158 0
20 -258 259 0
20 258 -259 -158 0
20 259 397 0
20 259 -254 0
20 -259 254 -397 0
20 260 -261 0
20 260 -265 0
20 -260 265 261 0
20 -261 262 0
20 -261 438 0
20 261 -438 -262 0
20 -262 -398 0
20 -262 263 0
20 262 -263 398 0
20 -263 53 0
20 -263 264 0
20 263 -264 -53 0
20 264 400 0
20 264 -254 0
20 -264 254 -400 0
20 265 -266 0
20 265 -270 0
20 -265 270 266 0
20 -266 267 0
20 -266 440 0
20 266 -440 -267 0
20 -267 -401 0
20 -267 268 0
20 267 -268 401 0
20 -268 59 0
20 -268 269 0
20 268 -269 -59 0
20 269 403 0
20 269 -254 0
20 -269 254 -403 0
20 -270 271 0
20 -270 441 0
20 270 -441 -271 0
20 -271 -392 0
20 -271 272 0
20 271 -272 392 0
20 -272 64 0
20 -272 273 0
20 272 -273 -64 0
20 273 394 0
20 273 -254 0
20 -273 254 -394 0
20 274 -6 0
20 274 -275 0
20 -274 275 6 0
20 -275 8 0
20 -275 417 0
20 275 -417 -8 0
20 276 -277 0
20 276 -278 0
20 -276 278 277 0
1 276 0
20 -277 280 0
20 -277 436 0
20 277 -436 -280 0
20 278 -279 0
20 278 -283 0
20 -278 283 279 0
20 -279 280 0
20 -279 438 0
20 279 -438 -280 0
20 -280 24 0
20 -280 281 0
20 280 -281 -24 0
20 -281 -402 0
20 -281 282 0
20 281 -282 402 0
20 282 403 0
20 282 -274 0
20 -282 274 -403 0
20 283 -284 0
20 283 -285 0
20 -283 285 284 0
20 -284 286 0
20 -284 440 0
20 284 -440 -286 0
20 -285 286 0
20 -285 441 0
20 285 -441 -286 0
20 -286 31 0
20 -286 287 0
20 286 -287 -31 0
20 -287 -399 0
20 -287 288 0
20 287 -288 399 0
20 288 400 0
20 288 -274 0
20 -288 274 -400 0
20 289 -275 0
20 289 -290 0
20 -289 290 275 0
20 290 -7 0
20 290 -291 0
20 -290 291 7 0
20 291 -11 0
20 291 -219 0
20 -291 219 11 0
20 292 -293 0
20 292 -294 0
20 -292 294 293 0
1 292 0
20 -293 296 0
20 -293 436 0
20 293 -436 -296 0
20 294 -295 0
20 294 -299 0
20 -294 299 295 0
20 -295 296 0
20 -295 438 0
20 295 -438 -296 0
20 -296 24 0
20 -296 297 0
20 296 -297 -24 0
20 -297 -402 0
20 -297 298 0
20 297 -298 402 0
20 298 403 0
20 298 -289 0
20 -298 289 -403 0
20 299 -300 0
20 299 -304 0
20 -299 304 300 0
20 -300 301 0
20 -300 440 0
20 300 -440 -301 0
20 -301 31 0
20 -301 302 0
20 301 -302 -31 0
20 -302 -399 0
20 -302 303 0
20 302 -303 399 0
20 303 400 0
20 303 -289 0
20 -303 289 -400 0
20 -304 305 0
20 -304 441 0
20 304 -441 -305 0
20 -305 236 0
20 -305 306 0
20 305 -306 -236 0
20 -306 -393 0
20 -306 307 0
20 306 -307 393 0
20 307 394 0
20 307 -289 0
20 -307 289 -394 0
20 -308 0
20 311 417 0
20 311 -312 0
20 -311 312 -417 0
20 311 0
20 -312 -347 0
20 -312 -348 0
20 312 348 347 0
20 313 419 0
20 313 -314 0
20 -313 314 -419 0
20 313 0
20 -314 -347 0
20 -314 315 0
20 314 -315 347 0
20 -315 -348 0
20 -315 316 0
20 315 -316 348 0
20 -316 -349 0
20 -316 -350 0
20 316 350 349 0
20 317 -314 0
20 317 421 0
20 -317 -421 314 0
20 317 0
20 318 436 0
20 318 -319 0
20 -318 319 -436 0
20 318 0
20 -319 -392 0
20 -319 320 0
20 319 -320 392 0
20 -320 -393 0
20 -320 -394 0
20 320 394 393 0
20 321 438 0
20 321 -322 0
20 -321 322 -438 0
20 321 0
20 -322 -392 0
20 -322 323 0
20 322 -323 392 0
20 -323 -393 0
20 -323 324 0
20 323 -324 393 0
20 -324 -394 0
20 -324 325 0
20 324 -325 394 0
20 -325 -395 0
20 -325 326 0
20 325 -326 395 0
20 -326 -396 0
20 -326 -397 0
20 326 397 396 0
20 327 -322 0
20 327 440 0
20 -327 -440 322 0
20 327 0
20 328 417 0
20 328 -329 0
20 -328 329 -417 0
20 328 0
20 -329 330 0
20 -329 333 0
20 329 -333 -330 0
20 330 -331 0
20 330 -332 0
20 -330 332 331 0
20 -331 -350 0
20 -331 349 0
20 331 -349 350 0
20 -332 -349 0
20 -332 350 0
20 332 -350 349 0
20 -333 334 0
20 -333 337 0
20 333 -337 -334 0
20 334 -335 0
20 334 -336 0
20 -334 336 335 0
20 -335 -352 0
20 -335 351 0
20 335 -351 352 0
20 -336 -351 0
20 -336 352 0
20 336 -352 351 0
20 337 -338 0
20 337 -339 0
20 -337 339 338 0
20 -338 -354 0
20 -338 353 0
20 338 -353 354 0
20 -339 -353 0
20 -339 354 0
20 339 -354 353 0
20 340 419 0
20 340 -333 0
20 -340 333 -419 0
20 340 0
20 341 421 0
20 341 -333 0
20 -341 333 -421 0
20 341 0
20 342 422 0
20 342 -343 0
20 -342 343 -422 0
20 342 0
20 -343 329 0
20 -343 344 0
20 343 -344 -329 0
20 344 -345 0
20 344 -346 0
20 -344 346 345 0
20 -345 -348 0
20 -345 347 0
20 345 -347 348 0
20 -346 -347 0
20 -346 348 0
20 346 -348 347 0
20 355 436 0
20 355 -356 0
20 -355 356 -436 0
20 355 0
20 -356 357 0
20 -356 364 0
20 356 -364 -357 0
20 357 -358 0
20 357 -362 0
20 -357 362 358 0
20 358 -359 0
20 358 -360 0
20 -358 360 359 0
20 -359 326 0
20 -359 395 0
20 359 -395 -326 0
20 -360 361 0
20 -360 396 0
20 360 -396 -361 0
20 -361 -395 0
20 -361 -397 0
20 361 397 395 0
20 -362 363 0
20 -362 397 0
20 362 -397 -363 0
20 -363 -395 0
20 -363 -396 0
20 363 396 395 0
20 -364 365 0
20 -364 373 0
20 364 -373 -365 0
20 365 -366 0
20 365 -371 0
20 -365 371 366 0
20 366 -367 0
20 366 -369 0
20 -366 369 367 0
20 -367 368 0
20 -367 398 0
20 367 -398 -368 0
20 -368 -399 0
20 -368 -400 0
20 368 400 399 0
20 -369 370 0
20 -369 399 0
20 369 -399 -370 0
20 -370 -398 0
20 -370 -400 0
20 370 400 398 0
20 -371 372 0
20 -371 400 0
20 371 -400 -372 0
20 -372 -398 0
20 -372 -399 0
20 372 399 398 0
20 373 -374 0
20 373 -379 0
20 -373 379 374 0
20 374 -375 0
20 374 -377 0
20 -374 377 375 0
20 -375 376 0
20 -375 401 0
20 375 -401 -376 0
20 -376 -402 0
20 -376 -403 0
20 376 403 402 0
20 -377 378 0
20 -377 402 0
20 377 -402 -378 0
20 -378 -401 0
20 -378 -403 0
20 378 403 401 0
20 -379 380 0
20 -379 403 0
20 379 -403 -380 0
20 -380 -401 0
20 -380 -402 0
20 380 402 401 0
20 381 438 0
20 381 -364 0
20 -381 364 -438 0
20 381 0
20 382 440 0
20 382 -364 0
20 -382 364 -440 0
20 382 0
20 383 441 0
20 383 -384 0
20 -383 384 -441 0
20 383 0
20 -384 356 0
20 -384 385 0
20 384 -385 -356 0
20 385 -386 0
20 385 -390 0
20 -385 390 386 0
20 386 -387 0
20 386 -388 0
20 -386 388 387 0
20 -387 320 0
20 -387 392 0
20 387 -392 -320 0
20 -388 389 0
20 -388 393 0
20 388 -393 -389 0
20 -389 -392 0
20 -389 -394 0
20 389 394 392 0
20 -390 391 0
20 -390 394 0
20 390 -394 -391 0
20 -391 -392 0
20 -391 -393 0
20 391 393 392 0
20 404 -405 0
20 404 -408 0
20 -404 408 405 0
20 404 0
20 -405 -419 0
20 -405 406 0
20 405 -406 419 0
20 -406 -421 0
20 -406 407 0
20 406 -407 421 0
20 -407 -422 0
20 -407 417 0
20 407 -417 422 0
20 408 -409 0
20 408 -412 0
20 -408 412 409 0
20 -409 -417 0
20 -409 410 0
20 409 -410 417 0
20 -410 -421 0
20 -410 411 0
20 410 -411 421 0
20 -411 -422 0
20 -411 419 0
20 411 -419 422 0
20 412 -413 0
20 412 -416 0
20 -412 416 413 0
20 -413 -417 0
20 -413 414 0
20 413 -414 417 0
20 -414 -419 0
20 -414 415 0
20 414 -415 419 0
20 -415 -422 0
20 -415 421 0
20 415 -421 422 0
20 -416 -417 0
20 -416 418 0
20 416 -418 417 0
20 -418 -419 0
20 -418 420 0
20 418 -420 419 0
20 -420 -421 0
20 -420 422 0
20 420 -422 421 0
20 423 -424 0
20 423 -427 0
20 -423 427 424 0
20 423 0
20 -424 -438 0
20 -424 425 0
20 424 -425 438 0
20 -425 -440 0
20 -425 426 0
20 425 -426 440 0
20 -426 -441 0
20 -426 436 0
20 426 -436 441 0
20 427 -428 0
20 427 -431 0
20 -427 431 428 0
20 -428 -436 0
20 -428 429 0
20 428 -429 436 0
20 -429 -440 0
20 -429 430 0
20 429 -430 440 0
20 -430 -441 0
20 -430 438 0
20 430 -438 441 0
20 431 -432 0
20 431 -435 0
20 -431 435 432 0
20 -432 -436 0
20 -432 433 0
20 432 -433 436 0
20 -433 -438 0
20 -433 434 0
20 433 -434 438 0
20 -434 -441 0
20 -434 440 0
20 434 -440 441 0
20 -435 -436 0
20 -435 437 0
20 435 -437 436 0
20 -437 -438 0
20 -437 439 0
20 437 -439 438 0
20 -439 -440 0
20 -439 441 0
20 439 -441 440 0
